&CONTROL
calculation = 'vc-relax'
nstep = 100
outdir = './out/'
prefix = 'aiida'
pseudo_dir = 'D:/sssp/'
restart_mode = 'from_scratch'
wf_collect = .TRUE.
/

&SYSTEM
degauss = 0.002
ecutwfc = 30
ibrav = 0
nat = 10
ntyp = 2
occupations = 'smearing'
/

&ELECTRONS
electron_maxstep = 100
mixing_beta = 0.5
scf_must_converge = .FALSE.
/

&IONS
ion_dynamics = 'bfgs'
upscale = 10
/

&CELL
cell_dofree = '2Dxy'
cell_dynamics = 'bfgs'
/

ATOMIC_SPECIES
Ti 47.9 ti_pbe_v1.4.uspp.F.UPF
C 12.011 C.pbe-n-kjpaw_psl.1.0.0.UPF

K_POINTS {automatic}
5 5 1 0 0 0

CELL_PARAMETERS {angstrom}
3.0666046304 0.0000000000 0.0000000000
-1.5333016456 2.6557578999 0.0000000000
0.0000000000 0.0000000000 15.1171500700

ATOMIC_POSITIONS {angstrom}
Ti 1.5333040717032003 0.8852517480423463 5.198450947797939
Ti -1.0869063776746186e-06 1.7705061518425929 12.757093858801754
Ti -1.0869063778484203e-06 1.7705061518425926 9.91869912220206
Ti 1.5333040717032003 0.885251748042346 2.3600562111982457
Ti 4.628292361363921e-16 8.016435188312181e-16 7.558575035
Ti 0 0 0
C -1.0869063780724467e-06 1.7705061518425922 6.260068684471261
C 1.533304071703201 0.8852517480423472 13.818448557063858
C -1.0869063783762427e-06 1.7705061518425917 1.2987015129361406
C 1.5333040717032005 0.8852517480423466 8.857081385528735
