&PROJWFC
  prefix = 'aiida'
  outdir = './out/'
  filpdos= 'pdos.dat'
/
