&CONTROL
calculation = 'bands'
outdir = './out/'
prefix = 'aiida'
pseudo_dir = 'D:/sssp/'
restart_mode = 'from_scratch'
wf_collect = .TRUE.
verbosity = 'high'
/

&SYSTEM
degauss = 0.002
ecutwfc = 30
ibrav = 0
nat = 14
nbnd=70
ntyp = 3
occupations = 'smearing'
/

&ELECTRONS
electron_maxstep = 100
mixing_beta = 0.5
scf_must_converge = .FALSE.
/

&IONS
ion_dynamics = 'bfgs'
upscale = 10
/

&CELL
cell_dofree = '2Dxy'
cell_dynamics = 'bfgs'
/

ATOMIC_SPECIES
Ti 47.9 ti_pbe_v1.4.uspp.F.UPF
C 12.011 C.pbe-n-kjpaw_psl.1.0.0.UPF
F 18.998403 F.oncvpsp.upf

K_POINTS crystal
628
    0.0000000000     0.0000000000     0.0000000000 1
    0.0714285714     0.0000000000     0.0000000000 1
    0.1428571429     0.0000000000     0.0000000000 1
    0.2142857143     0.0000000000     0.0000000000 1
    0.2857142857     0.0000000000     0.0000000000 1
    0.3571428571     0.0000000000     0.0000000000 1
    0.4285714286     0.0000000000     0.0000000000 1
    0.5000000000     0.0000000000     0.0000000000 1
    0.0000000000     0.5000000000     0.0000000000 1
    0.0000000000     0.4900000000     0.0000000000 1
    0.0000000000     0.4800000000     0.0000000000 1
    0.0000000000     0.4700000000     0.0000000000 1
    0.0000000000     0.4600000000     0.0000000000 1
    0.0000000000     0.4500000000     0.0000000000 1
    0.0000000000     0.4400000000     0.0000000000 1
    0.0000000000     0.4300000000     0.0000000000 1
    0.0000000000     0.4200000000     0.0000000000 1
    0.0000000000     0.4100000000     0.0000000000 1
    0.0000000000     0.4000000000     0.0000000000 1
    0.0000000000     0.3900000000     0.0000000000 1
    0.0000000000     0.3800000000     0.0000000000 1
    0.0000000000     0.3700000000     0.0000000000 1
    0.0000000000     0.3600000000     0.0000000000 1
    0.0000000000     0.3500000000     0.0000000000 1
    0.0000000000     0.3400000000     0.0000000000 1
    0.0000000000     0.3300000000     0.0000000000 1
    0.0000000000     0.3200000000     0.0000000000 1
    0.0000000000     0.3100000000     0.0000000000 1
    0.0000000000     0.3000000000     0.0000000000 1
    0.0000000000     0.2900000000     0.0000000000 1
    0.0000000000     0.2800000000     0.0000000000 1
    0.0000000000     0.2700000000     0.0000000000 1
    0.0000000000     0.2600000000     0.0000000000 1
    0.0000000000     0.2500000000     0.0000000000 1
    0.0000000000     0.2400000000     0.0000000000 1
    0.0000000000     0.2300000000     0.0000000000 1
    0.0000000000     0.2200000000     0.0000000000 1
    0.0000000000     0.2100000000     0.0000000000 1
    0.0000000000     0.2000000000     0.0000000000 1
    0.0000000000     0.1900000000     0.0000000000 1
    0.0000000000     0.1800000000     0.0000000000 1
    0.0000000000     0.1700000000     0.0000000000 1
    0.0000000000     0.1600000000     0.0000000000 1
    0.0000000000     0.1500000000     0.0000000000 1
    0.0000000000     0.1400000000     0.0000000000 1
    0.0000000000     0.1300000000     0.0000000000 1
    0.0000000000     0.1200000000     0.0000000000 1
    0.0000000000     0.1100000000     0.0000000000 1
    0.0000000000     0.1000000000     0.0000000000 1
    0.0000000000     0.0900000000     0.0000000000 1
    0.0000000000     0.0800000000     0.0000000000 1
    0.0000000000     0.0700000000     0.0000000000 1
    0.0000000000     0.0600000000     0.0000000000 1
    0.0000000000     0.0500000000     0.0000000000 1
    0.0000000000     0.0400000000     0.0000000000 1
    0.0000000000     0.0300000000     0.0000000000 1
    0.0000000000     0.0200000000     0.0000000000 1
    0.0000000000     0.0100000000     0.0000000000 1
    0.0000000000     0.0000000000     0.0000000000 1
    0.0000000000     0.0000000000     0.0100000000 1
    0.0000000000     0.0000000000     0.0200000000 1
    0.0000000000     0.0000000000     0.0300000000 1
    0.0000000000     0.0000000000     0.0400000000 1
    0.0000000000     0.0000000000     0.0500000000 1
    0.0000000000     0.0000000000     0.0600000000 1
    0.0000000000     0.0000000000     0.0700000000 1
    0.0000000000     0.0000000000     0.0800000000 1
    0.0000000000     0.0000000000     0.0900000000 1
    0.0000000000     0.0000000000     0.1000000000 1
    0.0000000000     0.0000000000     0.1100000000 1
    0.0000000000     0.0000000000     0.1200000000 1
    0.0000000000     0.0000000000     0.1300000000 1
    0.0000000000     0.0000000000     0.1400000000 1
    0.0000000000     0.0000000000     0.1500000000 1
    0.0000000000     0.0000000000     0.1600000000 1
    0.0000000000     0.0000000000     0.1700000000 1
    0.0000000000     0.0000000000     0.1800000000 1
    0.0000000000     0.0000000000     0.1900000000 1
    0.0000000000     0.0000000000     0.2000000000 1
    0.0000000000     0.0000000000     0.2100000000 1
    0.0000000000     0.0000000000     0.2200000000 1
    0.0000000000     0.0000000000     0.2300000000 1
    0.0000000000     0.0000000000     0.2400000000 1
    0.0000000000     0.0000000000     0.2500000000 1
    0.0000000000     0.0000000000     0.2600000000 1
    0.0000000000     0.0000000000     0.2700000000 1
    0.0000000000     0.0000000000     0.2800000000 1
    0.0000000000     0.0000000000     0.2900000000 1
    0.0000000000     0.0000000000     0.3000000000 1
    0.0000000000     0.0000000000     0.3100000000 1
    0.0000000000     0.0000000000     0.3200000000 1
    0.0000000000     0.0000000000     0.3300000000 1
    0.0000000000     0.0000000000     0.3400000000 1
    0.0000000000     0.0000000000     0.3500000000 1
    0.0000000000     0.0000000000     0.3600000000 1
    0.0000000000     0.0000000000     0.3700000000 1
    0.0000000000     0.0000000000     0.3800000000 1
    0.0000000000     0.0000000000     0.3900000000 1
    0.0000000000     0.0000000000     0.4000000000 1
    0.0000000000     0.0000000000     0.4100000000 1
    0.0000000000     0.0000000000     0.4200000000 1
    0.0000000000     0.0000000000     0.4300000000 1
    0.0000000000     0.0000000000     0.4400000000 1
    0.0000000000     0.0000000000     0.4500000000 1
    0.0000000000     0.0000000000     0.4600000000 1
    0.0000000000     0.0000000000     0.4700000000 1
    0.0000000000     0.0000000000     0.4800000000 1
    0.0000000000     0.0000000000     0.4900000000 1
    0.0000000000     0.0000000000     0.5000000000 1
   -0.5000000000    -0.5000000000     0.5000000000 1
   -0.4901960784    -0.4901960784     0.4901960784 1
   -0.4803921569    -0.4803921569     0.4803921569 1
   -0.4705882353    -0.4705882353     0.4705882353 1
   -0.4607843137    -0.4607843137     0.4607843137 1
   -0.4509803922    -0.4509803922     0.4509803922 1
   -0.4411764706    -0.4411764706     0.4411764706 1
   -0.4313725490    -0.4313725490     0.4313725490 1
   -0.4215686275    -0.4215686275     0.4215686275 1
   -0.4117647059    -0.4117647059     0.4117647059 1
   -0.4019607843    -0.4019607843     0.4019607843 1
   -0.3921568627    -0.3921568627     0.3921568627 1
   -0.3823529412    -0.3823529412     0.3823529412 1
   -0.3725490196    -0.3725490196     0.3725490196 1
   -0.3627450980    -0.3627450980     0.3627450980 1
   -0.3529411765    -0.3529411765     0.3529411765 1
   -0.3431372549    -0.3431372549     0.3431372549 1
   -0.3333333333    -0.3333333333     0.3333333333 1
   -0.3235294118    -0.3235294118     0.3235294118 1
   -0.3137254902    -0.3137254902     0.3137254902 1
   -0.3039215686    -0.3039215686     0.3039215686 1
   -0.2941176471    -0.2941176471     0.2941176471 1
   -0.2843137255    -0.2843137255     0.2843137255 1
   -0.2745098039    -0.2745098039     0.2745098039 1
   -0.2647058824    -0.2647058824     0.2647058824 1
   -0.2549019608    -0.2549019608     0.2549019608 1
   -0.2450980392    -0.2450980392     0.2450980392 1
   -0.2352941176    -0.2352941176     0.2352941176 1
   -0.2254901961    -0.2254901961     0.2254901961 1
   -0.2156862745    -0.2156862745     0.2156862745 1
   -0.2058823529    -0.2058823529     0.2058823529 1
   -0.1960784314    -0.1960784314     0.1960784314 1
   -0.1862745098    -0.1862745098     0.1862745098 1
   -0.1764705882    -0.1764705882     0.1764705882 1
   -0.1666666667    -0.1666666667     0.1666666667 1
   -0.1568627451    -0.1568627451     0.1568627451 1
   -0.1470588235    -0.1470588235     0.1470588235 1
   -0.1372549020    -0.1372549020     0.1372549020 1
   -0.1274509804    -0.1274509804     0.1274509804 1
   -0.1176470588    -0.1176470588     0.1176470588 1
   -0.1078431373    -0.1078431373     0.1078431373 1
   -0.0980392157    -0.0980392157     0.0980392157 1
   -0.0882352941    -0.0882352941     0.0882352941 1
   -0.0784313725    -0.0784313725     0.0784313725 1
   -0.0686274510    -0.0686274510     0.0686274510 1
   -0.0588235294    -0.0588235294     0.0588235294 1
   -0.0490196078    -0.0490196078     0.0490196078 1
   -0.0392156863    -0.0392156863     0.0392156863 1
   -0.0294117647    -0.0294117647     0.0294117647 1
   -0.0196078431    -0.0196078431     0.0196078431 1
   -0.0098039216    -0.0098039216     0.0098039216 1
    0.0000000000     0.0000000000     0.0000000000 1
    0.0000000000    -0.0100000000     0.0100000000 1
    0.0000000000    -0.0200000000     0.0200000000 1
    0.0000000000    -0.0300000000     0.0300000000 1
    0.0000000000    -0.0400000000     0.0400000000 1
    0.0000000000    -0.0500000000     0.0500000000 1
    0.0000000000    -0.0600000000     0.0600000000 1
    0.0000000000    -0.0700000000     0.0700000000 1
    0.0000000000    -0.0800000000     0.0800000000 1
    0.0000000000    -0.0900000000     0.0900000000 1
    0.0000000000    -0.1000000000     0.1000000000 1
    0.0000000000    -0.1100000000     0.1100000000 1
    0.0000000000    -0.1200000000     0.1200000000 1
    0.0000000000    -0.1300000000     0.1300000000 1
    0.0000000000    -0.1400000000     0.1400000000 1
    0.0000000000    -0.1500000000     0.1500000000 1
    0.0000000000    -0.1600000000     0.1600000000 1
    0.0000000000    -0.1700000000     0.1700000000 1
    0.0000000000    -0.1800000000     0.1800000000 1
    0.0000000000    -0.1900000000     0.1900000000 1
    0.0000000000    -0.2000000000     0.2000000000 1
    0.0000000000    -0.2100000000     0.2100000000 1
    0.0000000000    -0.2200000000     0.2200000000 1
    0.0000000000    -0.2300000000     0.2300000000 1
    0.0000000000    -0.2400000000     0.2400000000 1
    0.0000000000    -0.2500000000     0.2500000000 1
    0.0000000000    -0.2600000000     0.2600000000 1
    0.0000000000    -0.2700000000     0.2700000000 1
    0.0000000000    -0.2800000000     0.2800000000 1
    0.0000000000    -0.2900000000     0.2900000000 1
    0.0000000000    -0.3000000000     0.3000000000 1
    0.0000000000    -0.3100000000     0.3100000000 1
    0.0000000000    -0.3200000000     0.3200000000 1
    0.0000000000    -0.3300000000     0.3300000000 1
    0.0000000000    -0.3400000000     0.3400000000 1
    0.0000000000    -0.3500000000     0.3500000000 1
    0.0000000000    -0.3600000000     0.3600000000 1
    0.0000000000    -0.3700000000     0.3700000000 1
    0.0000000000    -0.3800000000     0.3800000000 1
    0.0000000000    -0.3900000000     0.3900000000 1
    0.0000000000    -0.4000000000     0.4000000000 1
    0.0000000000    -0.4100000000     0.4100000000 1
    0.0000000000    -0.4200000000     0.4200000000 1
    0.0000000000    -0.4300000000     0.4300000000 1
    0.0000000000    -0.4400000000     0.4400000000 1
    0.0000000000    -0.4500000000     0.4500000000 1
    0.0000000000    -0.4600000000     0.4600000000 1
    0.0000000000    -0.4700000000     0.4700000000 1
    0.0000000000    -0.4800000000     0.4800000000 1
    0.0000000000    -0.4900000000     0.4900000000 1
    0.0000000000    -0.5000000000     0.5000000000 1
   -0.5000000000     0.0000000000     0.5000000000 1
   -0.4901960784     0.0000000000     0.4901960784 1
   -0.4803921569     0.0000000000     0.4803921569 1
   -0.4705882353     0.0000000000     0.4705882353 1
   -0.4607843137     0.0000000000     0.4607843137 1
   -0.4509803922     0.0000000000     0.4509803922 1
   -0.4411764706     0.0000000000     0.4411764706 1
   -0.4313725490     0.0000000000     0.4313725490 1
   -0.4215686275     0.0000000000     0.4215686275 1
   -0.4117647059     0.0000000000     0.4117647059 1
   -0.4019607843     0.0000000000     0.4019607843 1
   -0.3921568627     0.0000000000     0.3921568627 1
   -0.3823529412     0.0000000000     0.3823529412 1
   -0.3725490196     0.0000000000     0.3725490196 1
   -0.3627450980     0.0000000000     0.3627450980 1
   -0.3529411765     0.0000000000     0.3529411765 1
   -0.3431372549     0.0000000000     0.3431372549 1
   -0.3333333333     0.0000000000     0.3333333333 1
   -0.3235294118     0.0000000000     0.3235294118 1
   -0.3137254902     0.0000000000     0.3137254902 1
   -0.3039215686     0.0000000000     0.3039215686 1
   -0.2941176471     0.0000000000     0.2941176471 1
   -0.2843137255     0.0000000000     0.2843137255 1
   -0.2745098039     0.0000000000     0.2745098039 1
   -0.2647058824     0.0000000000     0.2647058824 1
   -0.2549019608     0.0000000000     0.2549019608 1
   -0.2450980392     0.0000000000     0.2450980392 1
   -0.2352941176     0.0000000000     0.2352941176 1
   -0.2254901961     0.0000000000     0.2254901961 1
   -0.2156862745     0.0000000000     0.2156862745 1
   -0.2058823529     0.0000000000     0.2058823529 1
   -0.1960784314     0.0000000000     0.1960784314 1
   -0.1862745098     0.0000000000     0.1862745098 1
   -0.1764705882     0.0000000000     0.1764705882 1
   -0.1666666667     0.0000000000     0.1666666667 1
   -0.1568627451     0.0000000000     0.1568627451 1
   -0.1470588235     0.0000000000     0.1470588235 1
   -0.1372549020     0.0000000000     0.1372549020 1
   -0.1274509804     0.0000000000     0.1274509804 1
   -0.1176470588     0.0000000000     0.1176470588 1
   -0.1078431373     0.0000000000     0.1078431373 1
   -0.0980392157     0.0000000000     0.0980392157 1
   -0.0882352941     0.0000000000     0.0882352941 1
   -0.0784313725     0.0000000000     0.0784313725 1
   -0.0686274510     0.0000000000     0.0686274510 1
   -0.0588235294     0.0000000000     0.0588235294 1
   -0.0490196078     0.0000000000     0.0490196078 1
   -0.0392156863     0.0000000000     0.0392156863 1
   -0.0294117647     0.0000000000     0.0294117647 1
   -0.0196078431     0.0000000000     0.0196078431 1
   -0.0098039216     0.0000000000     0.0098039216 1
    0.0000000000     0.0000000000     0.0000000000 1
    0.0098039216    -0.0098039216     0.0000000000 1
    0.0196078431    -0.0196078431     0.0000000000 1
    0.0294117647    -0.0294117647     0.0000000000 1
    0.0392156863    -0.0392156863     0.0000000000 1
    0.0490196078    -0.0490196078     0.0000000000 1
    0.0588235294    -0.0588235294     0.0000000000 1
    0.0686274510    -0.0686274510     0.0000000000 1
    0.0784313725    -0.0784313725     0.0000000000 1
    0.0882352941    -0.0882352941     0.0000000000 1
    0.0980392157    -0.0980392157     0.0000000000 1
    0.1078431373    -0.1078431373     0.0000000000 1
    0.1176470588    -0.1176470588     0.0000000000 1
    0.1274509804    -0.1274509804     0.0000000000 1
    0.1372549020    -0.1372549020     0.0000000000 1
    0.1470588235    -0.1470588235     0.0000000000 1
    0.1568627451    -0.1568627451     0.0000000000 1
    0.1666666667    -0.1666666667     0.0000000000 1
    0.1764705882    -0.1764705882     0.0000000000 1
    0.1862745098    -0.1862745098     0.0000000000 1
    0.1960784314    -0.1960784314     0.0000000000 1
    0.2058823529    -0.2058823529     0.0000000000 1
    0.2156862745    -0.2156862745     0.0000000000 1
    0.2254901961    -0.2254901961     0.0000000000 1
    0.2352941176    -0.2352941176     0.0000000000 1
    0.2450980392    -0.2450980392     0.0000000000 1
    0.2549019608    -0.2549019608     0.0000000000 1
    0.2647058824    -0.2647058824     0.0000000000 1
    0.2745098039    -0.2745098039     0.0000000000 1
    0.2843137255    -0.2843137255     0.0000000000 1
    0.2941176471    -0.2941176471     0.0000000000 1
    0.3039215686    -0.3039215686     0.0000000000 1
    0.3137254902    -0.3137254902     0.0000000000 1
    0.3235294118    -0.3235294118     0.0000000000 1
    0.3333333333    -0.3333333333     0.0000000000 1
    0.3431372549    -0.3431372549     0.0000000000 1
    0.3529411765    -0.3529411765     0.0000000000 1
    0.3627450980    -0.3627450980     0.0000000000 1
    0.3725490196    -0.3725490196     0.0000000000 1
    0.3823529412    -0.3823529412     0.0000000000 1
    0.3921568627    -0.3921568627     0.0000000000 1
    0.4019607843    -0.4019607843     0.0000000000 1
    0.4117647059    -0.4117647059     0.0000000000 1
    0.4215686275    -0.4215686275     0.0000000000 1
    0.4313725490    -0.4313725490     0.0000000000 1
    0.4411764706    -0.4411764706     0.0000000000 1
    0.4509803922    -0.4509803922     0.0000000000 1
    0.4607843137    -0.4607843137     0.0000000000 1
    0.4705882353    -0.4705882353     0.0000000000 1
    0.4803921569    -0.4803921569     0.0000000000 1
    0.4901960784    -0.4901960784     0.0000000000 1
    0.5000000000    -0.5000000000     0.0000000000 1
    0.0000000000     0.0000000000     0.0000000000 1
   -0.0714285714     0.0000000000     0.0000000000 1
   -0.1428571429     0.0000000000     0.0000000000 1
   -0.2142857143     0.0000000000     0.0000000000 1
   -0.2857142857     0.0000000000     0.0000000000 1
   -0.3571428571     0.0000000000     0.0000000000 1
   -0.4285714286     0.0000000000     0.0000000000 1
   -0.5000000000     0.0000000000     0.0000000000 1
    0.0000000000    -0.5000000000     0.0000000000 1
    0.0000000000    -0.4900000000     0.0000000000 1
    0.0000000000    -0.4800000000     0.0000000000 1
    0.0000000000    -0.4700000000     0.0000000000 1
    0.0000000000    -0.4600000000     0.0000000000 1
    0.0000000000    -0.4500000000     0.0000000000 1
    0.0000000000    -0.4400000000     0.0000000000 1
    0.0000000000    -0.4300000000     0.0000000000 1
    0.0000000000    -0.4200000000     0.0000000000 1
    0.0000000000    -0.4100000000     0.0000000000 1
    0.0000000000    -0.4000000000     0.0000000000 1
    0.0000000000    -0.3900000000     0.0000000000 1
    0.0000000000    -0.3800000000     0.0000000000 1
    0.0000000000    -0.3700000000     0.0000000000 1
    0.0000000000    -0.3600000000     0.0000000000 1
    0.0000000000    -0.3500000000     0.0000000000 1
    0.0000000000    -0.3400000000     0.0000000000 1
    0.0000000000    -0.3300000000     0.0000000000 1
    0.0000000000    -0.3200000000     0.0000000000 1
    0.0000000000    -0.3100000000     0.0000000000 1
    0.0000000000    -0.3000000000     0.0000000000 1
    0.0000000000    -0.2900000000     0.0000000000 1
    0.0000000000    -0.2800000000     0.0000000000 1
    0.0000000000    -0.2700000000     0.0000000000 1
    0.0000000000    -0.2600000000     0.0000000000 1
    0.0000000000    -0.2500000000     0.0000000000 1
    0.0000000000    -0.2400000000     0.0000000000 1
    0.0000000000    -0.2300000000     0.0000000000 1
    0.0000000000    -0.2200000000     0.0000000000 1
    0.0000000000    -0.2100000000     0.0000000000 1
    0.0000000000    -0.2000000000     0.0000000000 1
    0.0000000000    -0.1900000000     0.0000000000 1
    0.0000000000    -0.1800000000     0.0000000000 1
    0.0000000000    -0.1700000000     0.0000000000 1
    0.0000000000    -0.1600000000     0.0000000000 1
    0.0000000000    -0.1500000000     0.0000000000 1
    0.0000000000    -0.1400000000     0.0000000000 1
    0.0000000000    -0.1300000000     0.0000000000 1
    0.0000000000    -0.1200000000     0.0000000000 1
    0.0000000000    -0.1100000000     0.0000000000 1
    0.0000000000    -0.1000000000     0.0000000000 1
    0.0000000000    -0.0900000000     0.0000000000 1
    0.0000000000    -0.0800000000     0.0000000000 1
    0.0000000000    -0.0700000000     0.0000000000 1
    0.0000000000    -0.0600000000     0.0000000000 1
    0.0000000000    -0.0500000000     0.0000000000 1
    0.0000000000    -0.0400000000     0.0000000000 1
    0.0000000000    -0.0300000000     0.0000000000 1
    0.0000000000    -0.0200000000     0.0000000000 1
    0.0000000000    -0.0100000000     0.0000000000 1
    0.0000000000     0.0000000000     0.0000000000 1
    0.0000000000     0.0000000000    -0.0100000000 1
    0.0000000000     0.0000000000    -0.0200000000 1
    0.0000000000     0.0000000000    -0.0300000000 1
    0.0000000000     0.0000000000    -0.0400000000 1
    0.0000000000     0.0000000000    -0.0500000000 1
    0.0000000000     0.0000000000    -0.0600000000 1
    0.0000000000     0.0000000000    -0.0700000000 1
    0.0000000000     0.0000000000    -0.0800000000 1
    0.0000000000     0.0000000000    -0.0900000000 1
    0.0000000000     0.0000000000    -0.1000000000 1
    0.0000000000     0.0000000000    -0.1100000000 1
    0.0000000000     0.0000000000    -0.1200000000 1
    0.0000000000     0.0000000000    -0.1300000000 1
    0.0000000000     0.0000000000    -0.1400000000 1
    0.0000000000     0.0000000000    -0.1500000000 1
    0.0000000000     0.0000000000    -0.1600000000 1
    0.0000000000     0.0000000000    -0.1700000000 1
    0.0000000000     0.0000000000    -0.1800000000 1
    0.0000000000     0.0000000000    -0.1900000000 1
    0.0000000000     0.0000000000    -0.2000000000 1
    0.0000000000     0.0000000000    -0.2100000000 1
    0.0000000000     0.0000000000    -0.2200000000 1
    0.0000000000     0.0000000000    -0.2300000000 1
    0.0000000000     0.0000000000    -0.2400000000 1
    0.0000000000     0.0000000000    -0.2500000000 1
    0.0000000000     0.0000000000    -0.2600000000 1
    0.0000000000     0.0000000000    -0.2700000000 1
    0.0000000000     0.0000000000    -0.2800000000 1
    0.0000000000     0.0000000000    -0.2900000000 1
    0.0000000000     0.0000000000    -0.3000000000 1
    0.0000000000     0.0000000000    -0.3100000000 1
    0.0000000000     0.0000000000    -0.3200000000 1
    0.0000000000     0.0000000000    -0.3300000000 1
    0.0000000000     0.0000000000    -0.3400000000 1
    0.0000000000     0.0000000000    -0.3500000000 1
    0.0000000000     0.0000000000    -0.3600000000 1
    0.0000000000     0.0000000000    -0.3700000000 1
    0.0000000000     0.0000000000    -0.3800000000 1
    0.0000000000     0.0000000000    -0.3900000000 1
    0.0000000000     0.0000000000    -0.4000000000 1
    0.0000000000     0.0000000000    -0.4100000000 1
    0.0000000000     0.0000000000    -0.4200000000 1
    0.0000000000     0.0000000000    -0.4300000000 1
    0.0000000000     0.0000000000    -0.4400000000 1
    0.0000000000     0.0000000000    -0.4500000000 1
    0.0000000000     0.0000000000    -0.4600000000 1
    0.0000000000     0.0000000000    -0.4700000000 1
    0.0000000000     0.0000000000    -0.4800000000 1
    0.0000000000     0.0000000000    -0.4900000000 1
    0.0000000000     0.0000000000    -0.5000000000 1
    0.5000000000     0.5000000000    -0.5000000000 1
    0.4901960784     0.4901960784    -0.4901960784 1
    0.4803921569     0.4803921569    -0.4803921569 1
    0.4705882353     0.4705882353    -0.4705882353 1
    0.4607843137     0.4607843137    -0.4607843137 1
    0.4509803922     0.4509803922    -0.4509803922 1
    0.4411764706     0.4411764706    -0.4411764706 1
    0.4313725490     0.4313725490    -0.4313725490 1
    0.4215686275     0.4215686275    -0.4215686275 1
    0.4117647059     0.4117647059    -0.4117647059 1
    0.4019607843     0.4019607843    -0.4019607843 1
    0.3921568627     0.3921568627    -0.3921568627 1
    0.3823529412     0.3823529412    -0.3823529412 1
    0.3725490196     0.3725490196    -0.3725490196 1
    0.3627450980     0.3627450980    -0.3627450980 1
    0.3529411765     0.3529411765    -0.3529411765 1
    0.3431372549     0.3431372549    -0.3431372549 1
    0.3333333333     0.3333333333    -0.3333333333 1
    0.3235294118     0.3235294118    -0.3235294118 1
    0.3137254902     0.3137254902    -0.3137254902 1
    0.3039215686     0.3039215686    -0.3039215686 1
    0.2941176471     0.2941176471    -0.2941176471 1
    0.2843137255     0.2843137255    -0.2843137255 1
    0.2745098039     0.2745098039    -0.2745098039 1
    0.2647058824     0.2647058824    -0.2647058824 1
    0.2549019608     0.2549019608    -0.2549019608 1
    0.2450980392     0.2450980392    -0.2450980392 1
    0.2352941176     0.2352941176    -0.2352941176 1
    0.2254901961     0.2254901961    -0.2254901961 1
    0.2156862745     0.2156862745    -0.2156862745 1
    0.2058823529     0.2058823529    -0.2058823529 1
    0.1960784314     0.1960784314    -0.1960784314 1
    0.1862745098     0.1862745098    -0.1862745098 1
    0.1764705882     0.1764705882    -0.1764705882 1
    0.1666666667     0.1666666667    -0.1666666667 1
    0.1568627451     0.1568627451    -0.1568627451 1
    0.1470588235     0.1470588235    -0.1470588235 1
    0.1372549020     0.1372549020    -0.1372549020 1
    0.1274509804     0.1274509804    -0.1274509804 1
    0.1176470588     0.1176470588    -0.1176470588 1
    0.1078431373     0.1078431373    -0.1078431373 1
    0.0980392157     0.0980392157    -0.0980392157 1
    0.0882352941     0.0882352941    -0.0882352941 1
    0.0784313725     0.0784313725    -0.0784313725 1
    0.0686274510     0.0686274510    -0.0686274510 1
    0.0588235294     0.0588235294    -0.0588235294 1
    0.0490196078     0.0490196078    -0.0490196078 1
    0.0392156863     0.0392156863    -0.0392156863 1
    0.0294117647     0.0294117647    -0.0294117647 1
    0.0196078431     0.0196078431    -0.0196078431 1
    0.0098039216     0.0098039216    -0.0098039216 1
    0.0000000000     0.0000000000     0.0000000000 1
    0.0000000000     0.0100000000    -0.0100000000 1
    0.0000000000     0.0200000000    -0.0200000000 1
    0.0000000000     0.0300000000    -0.0300000000 1
    0.0000000000     0.0400000000    -0.0400000000 1
    0.0000000000     0.0500000000    -0.0500000000 1
    0.0000000000     0.0600000000    -0.0600000000 1
    0.0000000000     0.0700000000    -0.0700000000 1
    0.0000000000     0.0800000000    -0.0800000000 1
    0.0000000000     0.0900000000    -0.0900000000 1
    0.0000000000     0.1000000000    -0.1000000000 1
    0.0000000000     0.1100000000    -0.1100000000 1
    0.0000000000     0.1200000000    -0.1200000000 1
    0.0000000000     0.1300000000    -0.1300000000 1
    0.0000000000     0.1400000000    -0.1400000000 1
    0.0000000000     0.1500000000    -0.1500000000 1
    0.0000000000     0.1600000000    -0.1600000000 1
    0.0000000000     0.1700000000    -0.1700000000 1
    0.0000000000     0.1800000000    -0.1800000000 1
    0.0000000000     0.1900000000    -0.1900000000 1
    0.0000000000     0.2000000000    -0.2000000000 1
    0.0000000000     0.2100000000    -0.2100000000 1
    0.0000000000     0.2200000000    -0.2200000000 1
    0.0000000000     0.2300000000    -0.2300000000 1
    0.0000000000     0.2400000000    -0.2400000000 1
    0.0000000000     0.2500000000    -0.2500000000 1
    0.0000000000     0.2600000000    -0.2600000000 1
    0.0000000000     0.2700000000    -0.2700000000 1
    0.0000000000     0.2800000000    -0.2800000000 1
    0.0000000000     0.2900000000    -0.2900000000 1
    0.0000000000     0.3000000000    -0.3000000000 1
    0.0000000000     0.3100000000    -0.3100000000 1
    0.0000000000     0.3200000000    -0.3200000000 1
    0.0000000000     0.3300000000    -0.3300000000 1
    0.0000000000     0.3400000000    -0.3400000000 1
    0.0000000000     0.3500000000    -0.3500000000 1
    0.0000000000     0.3600000000    -0.3600000000 1
    0.0000000000     0.3700000000    -0.3700000000 1
    0.0000000000     0.3800000000    -0.3800000000 1
    0.0000000000     0.3900000000    -0.3900000000 1
    0.0000000000     0.4000000000    -0.4000000000 1
    0.0000000000     0.4100000000    -0.4100000000 1
    0.0000000000     0.4200000000    -0.4200000000 1
    0.0000000000     0.4300000000    -0.4300000000 1
    0.0000000000     0.4400000000    -0.4400000000 1
    0.0000000000     0.4500000000    -0.4500000000 1
    0.0000000000     0.4600000000    -0.4600000000 1
    0.0000000000     0.4700000000    -0.4700000000 1
    0.0000000000     0.4800000000    -0.4800000000 1
    0.0000000000     0.4900000000    -0.4900000000 1
    0.0000000000     0.5000000000    -0.5000000000 1
    0.5000000000     0.0000000000    -0.5000000000 1
    0.4901960784     0.0000000000    -0.4901960784 1
    0.4803921569     0.0000000000    -0.4803921569 1
    0.4705882353     0.0000000000    -0.4705882353 1
    0.4607843137     0.0000000000    -0.4607843137 1
    0.4509803922     0.0000000000    -0.4509803922 1
    0.4411764706     0.0000000000    -0.4411764706 1
    0.4313725490     0.0000000000    -0.4313725490 1
    0.4215686275     0.0000000000    -0.4215686275 1
    0.4117647059     0.0000000000    -0.4117647059 1
    0.4019607843     0.0000000000    -0.4019607843 1
    0.3921568627     0.0000000000    -0.3921568627 1
    0.3823529412     0.0000000000    -0.3823529412 1
    0.3725490196     0.0000000000    -0.3725490196 1
    0.3627450980     0.0000000000    -0.3627450980 1
    0.3529411765     0.0000000000    -0.3529411765 1
    0.3431372549     0.0000000000    -0.3431372549 1
    0.3333333333     0.0000000000    -0.3333333333 1
    0.3235294118     0.0000000000    -0.3235294118 1