&CONTROL
calculation = 'vc-relax'
nstep = 100
outdir = './out/'
prefix = 'aiida'
pseudo_dir = 'D:/sssp/'
restart_mode = 'from_scratch'
wf_collect = .TRUE.
/

&SYSTEM
degauss = 0.002
ecutwfc = 30
ibrav = 0
nat = 14
ntyp = 3
occupations = 'smearing'
/

&ELECTRONS
electron_maxstep = 100
mixing_beta = 0.5
scf_must_converge = .FALSE.
/

&IONS
ion_dynamics = 'bfgs'
upscale = 10
/

&CELL
cell_dofree = '2Dxy'
cell_dynamics = 'bfgs'
/

ATOMIC_SPECIES
Ti 47.9 ti_pbe_v1.4.uspp.F.UPF
C 12.011 C.pbe-n-kjpaw_psl.1.0.0.UPF
F 18.998403 F.oncvpsp.upf

K_POINTS {automatic}
5 5 1 0 0 0

CELL_PARAMETERS {angstrom}
-1.5333025000 -2.6557578334 0.0000000000
-1.5333025000 2.6557578334 0.0000000000
0.0000000000 0.0000000000 -15.1171500000

ATOMIC_POSITIONS {angstrom}
Ti 0 0 0
Ti 0 0 -7.558575
Ti -1.5333025 -0.8852526113103838 -2.3601196923
Ti -1.5333025 0.8852526113103838 -9.9186946923
Ti -1.5333025 0.8852526113103838 -12.757030307700001
Ti -1.5333025 -0.8852526113103838 -5.198455307700001
C -1.5333025 0.8852526113103838 -1.2985027164
C -1.5333025 -0.8852526113103838 -8.8570777164
C -1.5333025 0.8852526113103838 -6.2600722836000005
C -1.5333025 -0.8852526113103838 -13.8186472836
F -0.1021179465 0 -11.0355195
F -0.10426457 0 -3.7188189
F -2.9644870535 0 -11.2773939
F -2.9644870535 0 -3.7188189